! B3LYP def2-TZVP DEFGRID2 TightSCF Freq

%pal nprocs 4 end

%maxcore 1024

* xyz 0 1
O   0.000000000  0.000000000  0.000000000
H   0.000000000  0.757160000  0.586260000
H   0.000000000 -0.757160000  0.586260000
*
